(set-logic ALL)
(declare-fun it144 () Int)
(declare-fun i1 () Int)
(declare-fun it10 () Int)
(declare-fun it2141 () Int)
(declare-fun it2142 () Int)
(declare-fun it2143 () Int)
(declare-fun it2144 () Int)
(declare-fun it2145 () Int)
(declare-fun it6 () Int)
(declare-fun it2146 () Int)
(declare-fun it192 () Int)
(declare-fun it15 () Int)
(declare-fun it2150 () Int)
(declare-fun it2151 () Int)
(declare-fun it2152 () Int)
(declare-fun it2153 () Int)
(declare-fun it2154 () Int)
(declare-fun it11 () Int)
(declare-fun it2155 () Int)
(declare-fun it20 () Int)
(declare-fun it2168 () Int)
(declare-fun it2169 () Int)
(declare-fun it2170 () Int)
(declare-fun it2171 () Int)
(declare-fun it2172 () Int)
(declare-fun it17 () Int)
(declare-fun it2173 () Int)
(declare-fun it16 () Int)
(declare-fun it25 () Int)
(declare-fun it223 () Int)
(declare-fun it2177 () Int)
(declare-fun it2178 () Int)
(declare-fun it2179 () Int)
(declare-fun it2180 () Int)
(declare-fun it22 () Int)
(declare-fun it2181 () Int)
(declare-fun it2182 () Int)
(declare-fun it21 () Int)
(declare-fun it30 () Int)
(declare-fun it2196 () Int)
(declare-fun it2197 () Int)
(declare-fun it2198 () Int)
(declare-fun it2199 () Int)
(declare-fun it2200 () Int)
(declare-fun it27 () Int)
(declare-fun it2201 () Int)
(declare-fun it26 () Int)
(declare-fun it255 () Int)
(declare-fun it35 () Int)
(declare-fun it2251 () Int)
(declare-fun it2252 () Int)
(declare-fun it2253 () Int)
(declare-fun it2254 () Int)
(declare-fun it2255 () Int)
(declare-fun it32 () Int)
(declare-fun it31 () Int)
(declare-fun it2256 () Int)
(declare-fun it49 () Int)
(declare-fun it50 () Int)
(declare-fun it47 () Int)
(declare-fun it2307 () Int)
(declare-fun it2308 () Int)
(declare-fun it2309 () Int)
(declare-fun it2310 () Int)
(declare-fun it2311 () Int)
(declare-fun it2312 () Int)
(declare-fun it678 () Int)
(declare-fun it346 () Int)
(declare-fun it107 () Int)
(declare-fun it117 () Int)
(assert (and (> it10 0) (= (+ i1 (- 13)) 0) (> (+ it144 1) 0)))
(assert (= (+ it2141 (- 2)) 0))
(assert (= (+ (* it10 (- 1)) it2142) 0))
(assert (= (+ it2143 (- 2)) 0))
(assert (= it2144 0))
(assert (= (+ it2145 (* it144 (- 1))) 0))
(assert (= (+ it2146 (* it6 (- 1))) 0))
(assert (and (> it15 0)
     (>= (+ it2142 (* it15 (- 1))) 0)
     (>= (+ it2141 (- 2)) 0)
     (>= (+ (* it2141 (- 1)) 2) 0)
     (> (+ it2145 (* it2144 (- 1))) 0)
     (> (+ (* it192 (- 1)) it2145 (* it2144 (- 1)) 1) 0)
     (>= (+ it192 (- 1)) 0)
     (> (+ it2145 1) 0)
     (> it2142 0)
     (> (+ it2143 (- 1)) 0)))
(assert (= (+ (* it2141 (- 1)) it2150) 0))
(assert (= (+ it2151 (* it15 (- 1))) 0))
(assert (= (+ (+ 0 it2152) (* (exp 2 it192) (+ 0 it2143) (+ 0 (- 1))))
   (+ 0 0)))
(assert (= (+ (* it192 (- 1)) it2153 (* it2144 (- 1))) 0))
(assert (= (+ it2154 (* it2145 (- 1))) 0))
(assert (= (+ it2155 (* it11 (- 1))) 0))
(assert (and (> it20 0)
     (>= (+ it2151 (* it20 (- 1))) 0)
     (> (+ it2152 1) 0)
     (= (+ it2150 (- 2)) 0)
     (> it2151 0)
     (<= (+ it2154 (* it2153 (- 1))) 0)))
(assert (= (+ it2168 (- 3)) 0))
(assert (= (+ (* it20 (- 1)) it2169) 0))
(assert (= it2170 0))
(assert (= (+ it2171 (* it2152 (- 1))) 0))
(assert (= (+ (* it17 (- 1)) it2172) 0))
(assert (= (+ (* it16 (- 1)) it2173) 0))
(assert (let ((a!1 (> (+ (+ (* it2170 (- 1)) it2171) (* it223 (- 1)) 1) 0)))
  (and (> it25 0)
       a!1
       (> it2169 0)
       (>= (+ it223 (- 1)) 0)
       (>= (+ it2169 (* it25 (- 1))) 0)
       (> (+ (* it2170 (- 1)) it2171) 0)
       (> (+ it2171 1) 0)
       (>= (+ it2168 (- 3)) 0)
       (> (+ it2170 1) 0)
       (>= (+ (* it2168 (- 1)) 3) 0))))
(assert (= (+ it2177 (* it2168 (- 1))) 0))
(assert (= (+ it2178 (* it25 (- 1))) 0))
(assert (= (+ (* it2170 (- 1)) it2179 (* it223 (- 1))) 0))
(assert (= (+ it2180 (* it2171 (- 1))) 0))
(assert (= (+ it2181 (* it22 (- 1))) 0))
(assert (= (+ (* it21 (- 1)) it2182) 0))
(assert (and (> it30 0)
     (= (+ it2177 (- 3)) 0)
     (> it2178 0)
     (<= (+ it2180 (* it2179 (- 1))) 0)
     (<= (+ it30 (* it2178 (- 1))) 0)
     (> it2180 0)))
(assert (= (+ it2196 (- 4)) 0))
(assert (= (+ (* it30 (- 1)) it2197) 0))
(assert (= it2198 0))
(assert (= (+ (* it2180 (- 1)) it2199) 0))
(assert (= (+ (* it27 (- 1)) it2200) 0))
(assert (= (+ (* it26 (- 1)) it2201) 0))
(assert (and (> it35 0)
     (> (+ (* it2198 (- 1)) it2199) 0)
     (> (+ it2199 (- 1)) 0)
     (> (+ (* it2198 (- 1)) (* it255 (- 1)) it2199 1) 0)
     (>= (+ it2197 (* it35 (- 1))) 0)
     (>= (+ it255 (- 1)) 0)
     (>= (+ it2196 (- 4)) 0)
     (> it2197 0)
     (>= (+ (* it2196 (- 1)) 4) 0)))
(assert (= (+ it2251 (* it2196 (- 1))) 0))
(assert (= (+ it2252 (* it35 (- 1))) 0))
(assert (= (+ (* it2198 (- 1)) (* it255 (- 1)) it2253) 0))
(assert (= (+ (* it2199 (- 1)) it2254) 0))
(assert (= (+ (* it32 (- 1)) it2255) 0))
(assert (= (+ it2256 (* it31 (- 1))) 0))
(assert (and (> it47 0)
     (> it49 0)
     (> it50 0)
     (<= (+ (* it2252 (- 1)) it47) 0)
     (> (+ it2254 (- 1)) 0)
     (<= (+ (* it2252 (- 1)) it50) 0)
     (= (+ it2251 (- 4)) 0)
     (<= (+ (* it2253 (- 1)) it2254) 0)
     (> it2252 0)
     (<= (+ (* it2252 (- 1)) it49) 0)))
(assert (= (+ it2307 (- 6)) 0))
(assert (= (+ it2308 (* it50 (- 1))) 0))
(assert (= (+ (* it49 (- 1)) it2309) 0))
(assert (= it2310 0))
(assert (= (+ it2311 (* it47 (- 1))) 0))
(assert (= (+ it2312 (* it2254 (- 1))) 0))
(assert (let ((a!1 (>= (+ (+ (* it2310 (- 1)) it117) (- 1)) 0))
      (a!2 (> (+ (+ (* it2310 (- 1)) (* it346 (- 1)) it117) (* it678 (- 1))) 0))
      (a!3 (> (+ (+ (* it2310 (- 1)) (* it346 (- 1)) it117) 1) 0))
      (a!4 (> (+ (+ (* it2310 (- 1)) it2312) (- 1)) 0))
      (a!5 (+ (+ (* it2310 (- 1)) (* it346 (- 1)) it117) (- 1)))
      (a!6 (>= (+ (+ (* it2310 (- 1)) it117) (- 2)) 0)))
  (and (> it107 0)
       (> (+ it117 1) 0)
       (>= (+ it346 (- 1)) 0)
       (>= (+ it2309 (- 1)) 0)
       (>= (+ (* it2307 (- 1)) 6) 0)
       a!1
       (> it2309 0)
       (> (+ it2310 it346 1) 0)
       (> it2312 0)
       (> (+ (* it2310 (- 1)) it117) 0)
       (> it2311 0)
       (> (+ (* it2310 (- 1)) it2312) 0)
       a!2
       (>= (+ (* it2310 (- 1)) (* it346 (- 1)) it117) 0)
       (<= (+ (* it107 (- 1)) it2309) 0)
       (<= (+ (* it107 (- 1)) it2308) 0)
       (>= (+ (* it107 (- 1)) it2309) 0)
       (>= (+ (* it107 (- 1)) it2308) 0)
       a!3
       a!4
       (> (+ it117 (- 1)) 0)
       (>= (+ it107 (- 1)) 0)
       (<= (+ (* it346 (- 1)) (* it678 (- 1))) 0)
       (> it117 0)
       (= 0 0)
       (<= (+ it346 it678) 0)
       (>= (+ it2311 (- 1)) 0)
       (= (+ (* it117 (- 1)) it2312) 0)
       (>= (+ it2307 (- 6)) 0)
       (>= a!5 0)
       (> (+ it2310 1) 0)
       (>= (+ it2308 (- 1)) 0)
       (> it2308 0)
       (> (+ it2312 (- 1)) 0)
       (> (+ (* it2310 (- 1)) (* it346 (- 1)) it117) 0)
       (>= (+ it678 (- 1)) 0)
       (> a!5 0)
       a!6
       (>= (+ (* it107 (- 1)) it2311) 0)
       (= (+ (* it346 (- 1)) (* it678 (- 1))) 0))))
(check-sat)
